17	4	3
18	13	16	14	33	20	24	
0	0	0	0	0	4	3	2	7	3	7	3	2	3	4
2	7	3	5	0	8	6	10	2	1	8	3	6	8	11
8	0	6	0	3	9	6	2	7	10	7	3	5	7	14
7	1	4	8	5	5	10	1	2	1	1	3	11	16	17
8	8	0	10	0	2	7	5	5	9	1	2	12	17
75	6	2	0	7	9	2	3	1	9	6	1	17
125	3	5	0	4	8	6	1	7	8	1	1	17
225	0	0	10	3	5	6	6	6	3	6	3	9	10	17
175	7	7	10	4	3	7	5	4	9	6	2	13	17
200	10	10	8	0	4	10	3	8	5	1	3	15	16	17
200	6	4	0	1	9	4	2	1	5	10	1	15
100	6	6	7	4	6	2	6	7	9	3	2	17	17
10	8	6	6	0	7	3	9	3	8	2	1	17
5	4	0	10	7	9	1	8	4	4	6	1	17
7	4	0	2	0	10	7	6	2	5	10	1	17
10	8	8	5	2	2	3	4	4	3	8	2	17	17
0	0	0	0	0	3	9	10	9	5	8	0
